c 
p cnf 137 214
-9 -8 21 0
-21 -17 22 0
-22 -13 -15 0
-12 3 23 0
-23 10 24 0
-24 -4 19 0
3 -7 25 0
-25 -5 15 0
-7 -5 26 0
-7 -5 -26 0
-15 17 27 0
-15 17 -27 0
-11 -2 28 0
-28 -13 29 0
-29 -15 -10 0
15 30 31 0
15 30 -31 0
15 -30 31 0
15 -30 -31 0
9 -19 -3 0
17 -6 32 0
17 -6 -32 0
8 -14 33 0
8 -14 -33 0
19 14 34 0
19 14 -34 0
19 -15 35 0
-35 -5 1 0
-2 -16 36 0
-36 9 37 0
-37 -18 1 0
-15 17 38 0
-15 17 -38 0
10 19 39 0
-39 18 -1 0
12 40 41 0
12 40 -41 0
12 -40 41 0
12 -40 -41 0
-19 -9 42 0
-19 -9 -42 0
-4 -8 43 0
-43 15 44 0
-44 -7 -1 0
7 -8 45 0
-45 2 46 0
-46 -9 13 0
-3 16 19 0
-7 47 48 0
-7 47 -48 0
-7 -47 48 0
-7 -47 -48 0
20 49 50 0
20 49 -50 0
20 -49 50 0
20 -49 -50 0
-10 18 51 0
-51 -3 52 0
-52 -13 16 0
-19 6 53 0
-53 -13 54 0
-54 1 -18 0
-14 9 55 0
-55 5 -11 0
-20 11 56 0
-56 6 -14 0
-15 -4 57 0
-57 -16 58 0
-58 -6 -20 0
-18 -3 2 0
-14 59 60 0
-14 59 -60 0
-14 -59 60 0
-14 -59 -60 0
5 61 62 0
5 61 -62 0
5 -61 62 0
5 -61 -62 0
-9 63 64 0
-9 63 -64 0
-9 -63 64 0
-9 -63 -64 0
11 -10 -6 0
-3 11 65 0
-65 4 66 0
-66 14 5 0
-11 67 68 0
-11 67 -68 0
-11 -67 68 0
-11 -67 -68 0
19 -4 69 0
19 -4 -69 0
19 2 70 0
-70 -8 -14 0
12 -13 71 0
-71 9 72 0
-72 -1 16 0
-9 20 2 0
2 -20 73 0
2 -20 -73 0
18 20 74 0
18 20 -74 0
14 13 75 0
14 13 -75 0
-11 5 76 0
-76 13 18 0
6 20 77 0
6 20 -77 0
-18 8 78 0
-78 -5 79 0
-79 -15 3 0
-4 80 81 0
-4 80 -81 0
-4 -80 81 0
-4 -80 -81 0
9 -18 82 0
9 -18 -82 0
-19 3 83 0
-83 -11 84 0
-84 -4 16 0
-12 85 86 0
-12 85 -86 0
-12 -85 86 0
-12 -85 -86 0
-17 -13 87 0
-87 19 88 0
-88 -18 -2 0
-3 89 90 0
-3 89 -90 0
-3 -89 90 0
-3 -89 -90 0
3 16 91 0
-91 -4 15 0
-15 92 93 0
-15 92 -93 0
-15 -92 93 0
-15 -92 -93 0
-20 94 95 0
-20 94 -95 0
-20 -94 95 0
-20 -94 -95 0
-1 -6 96 0
-96 -19 97 0
-97 16 18 0
-17 -6 98 0
-98 -13 99 0
-99 -15 -3 0
-12 3 -4 0
11 -3 100 0
-100 -18 101 0
-101 16 19 0
4 1 102 0
-102 11 7 0
19 12 103 0
-103 16 10 0
-2 -1 104 0
-104 18 105 0
-105 -15 -20 0
14 -9 106 0
-106 -3 107 0
-107 6 10 0
-19 11 108 0
-108 -3 109 0
-109 -4 1 0
10 -4 -15 0
-3 110 111 0
-3 110 -111 0
-3 -110 111 0
-3 -110 -111 0
17 10 112 0
17 10 -112 0
8 10 113 0
-113 19 114 0
-114 -9 16 0
-6 -14 115 0
-115 -12 116 0
-116 4 -9 0
1 117 118 0
1 117 -118 0
1 -117 118 0
1 -117 -118 0
18 -17 119 0
-119 13 10 0
16 120 121 0
16 120 -121 0
16 -120 121 0
16 -120 -121 0
-16 4 122 0
-16 4 -122 0
-7 -3 123 0
-123 8 124 0
-124 15 16 0
-1 4 125 0
-125 11 126 0
-126 19 -3 0
20 15 127 0
-127 -3 -19 0
-2 18 128 0
-128 8 129 0
-129 19 -9 0
19 -20 130 0
-130 10 131 0
-131 4 -15 0
-6 132 133 0
-6 132 -133 0
-6 -132 133 0
-6 -132 -133 0
-7 10 134 0
-7 10 -134 0
-1 -2 135 0
-1 -2 -135 0
12 18 136 0
-136 10 137 0
-137 -2 -7 0
